instances/shortest_path/discrete_knapsack_uncertainty/nohadani_4_10.lp
\ Model nohadani_4_10
\ LP format - for model browsing. Use MPS format to capture full model detail.
\ Signature: 0x26b3cf7f3313a25f
Minimize
  31.06444913401813 y[0,1] + 12.64911064067352 y[0,2]
   + 31.06444913401813 y[1,0] + 30.4138126514911 y[1,2]
   + 35.22782990761707 y[1,3] + 12.64911064067352 y[2,0]
   + 30.4138126514911 y[2,1] + 37.44329045369811 y[2,3]
   + 35.22782990761707 y[3,1] + 37.44329045369811 y[3,2] + x[0,1] + x[0,2]
   + x[1,0] + x[1,2] + x[1,3] + x[2,0] + x[2,1] + x[2,3] + x[3,1] + x[3,2]
   + 3.106444913401814 r[0,1] + 1.264911064067352 r[0,2]
   + 3.106444913401814 r[1,0] + 3.04138126514911 r[1,2]
   + 3.522782990761707 r[1,3] + 1.264911064067352 r[2,0]
   + 3.04138126514911 r[2,1] + 3.744329045369811 r[2,3]
   + 3.522782990761707 r[3,1] + 3.744329045369811 r[3,2]
Subject To
 flow_cons_inner_nodes[1]: y[0,1] - y[1,0] - y[1,2] - y[1,3] + y[2,1]
   + y[3,1] = 0
 flow_cons_inner_nodes[2]: y[0,2] + y[1,2] - y[2,0] - y[2,1] - y[2,3]
   + y[3,2] = 0
 flow_cons_source: y[0,1] + y[0,2] - y[1,0] - y[2,0] = 1
 flow_cons_target: y[1,3] + y[2,3] - y[3,1] - y[3,2] = 1
 primal_lower: 6.711070254205143 x[0,1] + 2.605689730007257 x[0,2]
   + 4.86538530299145 x[1,0] + 6.509131320662751 x[1,2]
   + 3.611346586929866 x[1,3] + 7.87895103709374 x[2,0]
   + 3.619269202840098 x[2,1] + 0.4518549416426211 x[2,3]
   + 8.352949445410284 x[3,1] + 9.594238283513103 x[3,2] + 75 u[0,1]
   + 12 u[0,2] + 78 u[1,0] + 75 u[1,2] + 96 u[1,3] + 13 u[2,0] + 73 u[2,1]
   + 19 u[2,3] + 57 u[3,1] + 22 u[3,2] <= 96
 mccormick1[0,1]: - u[0,1] + r[0,1] <= 0
 mccormick1[0,2]: - u[0,2] + r[0,2] <= 0
 mccormick1[1,0]: - u[1,0] + r[1,0] <= 0
 mccormick1[1,2]: - u[1,2] + r[1,2] <= 0
 mccormick1[1,3]: - u[1,3] + r[1,3] <= 0
 mccormick1[2,0]: - u[2,0] + r[2,0] <= 0
 mccormick1[2,1]: - u[2,1] + r[2,1] <= 0
 mccormick1[2,3]: - u[2,3] + r[2,3] <= 0
 mccormick1[3,1]: - u[3,1] + r[3,1] <= 0
 mccormick1[3,2]: - u[3,2] + r[3,2] <= 0
 mccormick2[0,1]: - y[0,1] + r[0,1] <= 0
 mccormick2[0,2]: - y[0,2] + r[0,2] <= 0
 mccormick2[1,0]: - y[1,0] + r[1,0] <= 0
 mccormick2[1,2]: - y[1,2] + r[1,2] <= 0
 mccormick2[1,3]: - y[1,3] + r[1,3] <= 0
 mccormick2[2,0]: - y[2,0] + r[2,0] <= 0
 mccormick2[2,1]: - y[2,1] + r[2,1] <= 0
 mccormick2[2,3]: - y[2,3] + r[2,3] <= 0
 mccormick2[3,1]: - y[3,1] + r[3,1] <= 0
 mccormick2[3,2]: - y[3,2] + r[3,2] <= 0
 mccormick3[0,1]: - y[0,1] - u[0,1] + r[0,1] >= -1
 mccormick3[0,2]: - y[0,2] - u[0,2] + r[0,2] >= -1
 mccormick3[1,0]: - y[1,0] - u[1,0] + r[1,0] >= -1
 mccormick3[1,2]: - y[1,2] - u[1,2] + r[1,2] >= -1
 mccormick3[1,3]: - y[1,3] - u[1,3] + r[1,3] >= -1
 mccormick3[2,0]: - y[2,0] - u[2,0] + r[2,0] >= -1
 mccormick3[2,1]: - y[2,1] - u[2,1] + r[2,1] >= -1
 mccormick3[2,3]: - y[2,3] - u[2,3] + r[2,3] >= -1
 mccormick3[3,1]: - y[3,1] - u[3,1] + r[3,1] >= -1
 mccormick3[3,2]: - y[3,2] - u[3,2] + r[3,2] >= -1
Bounds
Binaries
 y[0,1] y[0,2] y[1,0] y[1,2] y[1,3] y[2,0] y[2,1] y[2,3] y[3,1] y[3,2]
 x[0,1] x[0,2] x[1,0] x[1,2] x[1,3] x[2,0] x[2,1] x[2,3] x[3,1] x[3,2]
 u[0,1] u[0,2] u[1,0] u[1,2] u[1,3] u[2,0] u[2,1] u[2,3] u[3,1] u[3,2]
 r[0,1] r[0,2] r[1,0] r[1,2] r[1,3] r[2,0] r[2,1] r[2,3] r[3,1] r[3,2]
End
