instances/shortest_path/discrete_knapsack_uncertainty/nohadani_4_10.kp
71725
96

[6.7110702542051435 2.605689730007257 4.86538530299145 6.509131320662751 3.6113465869298658 7.87895103709374 3.619269202840098 0.4518549416426211 8.352949445410284 9.594238283513103]

[75 12 78 75 96 13 73 19 57 22]
